c Random 6-CNF over 20 variables and 60 clauses
c Generated with `cnfgen`
c (C) 2012-2016 Massimo Lauria <lauria.massimo@gmail.com>
c https://massimolauria.github.io/cnfgen
c
c COMMAND LINE: cnfgen --output tmp-6-20-60.dimacs --output-format dimacs randkcnf 6 20 60
c
c sdimacs generated by gen-sdimacs
c
p cnf 20 60
r 0.5 1 2 3 4 5 6 7 8 9 10 0
e  11 12 13 14 15 16 17 18 19 20 0
-2 -5 11 -13 17 19 0
-4 -5 -9 -15 -18 -19 0
1 -3 -10 15 -17 18 0
-3 4 6 8 17 20 0
-1 -2 3 10 -17 -19 0
3 13 -14 15 -18 20 0
4 6 7 -8 11 -17 0
-8 11 16 17 -19 20 0
-5 10 -11 13 16 -20 0
1 4 -10 12 15 19 0
-3 -6 13 14 17 19 0
-1 -4 -8 -11 -13 -15 0
1 6 8 -13 15 17 0
-1 -2 -9 -10 12 -13 0
-4 6 -8 13 14 18 0
-6 -10 -11 -15 -19 -20 0
-5 10 -12 13 -17 18 0
1 -2 9 -12 -14 18 0
-2 -3 11 -13 15 -16 0
-4 -7 -10 16 18 -20 0
-2 -12 -13 -14 -17 -20 0
-1 3 13 17 18 20 0
-7 -13 -14 -17 18 19 0
-1 -4 -11 -12 16 -20 0
-4 -6 -13 -14 19 20 0
-3 6 -7 -8 -17 20 0
-6 -8 -10 -13 -16 -20 0
2 4 10 13 -18 -19 0
3 5 -6 -8 12 19 0
-1 4 7 -8 -17 20 0
3 8 12 -14 18 -20 0
4 -5 -8 12 -13 -20 0
2 -6 -8 -9 -17 18 0
-8 9 -10 -15 -17 -18 0
-10 11 -12 -16 19 -20 0
-1 2 -3 4 -6 7 0
-2 -3 6 -8 9 -12 0
-1 -4 9 17 -18 -19 0
6 8 -9 -11 14 -15 0
1 8 10 14 -17 19 0
-3 -7 -10 12 15 -17 0
-2 -5 7 8 -9 12 0
1 -3 -6 12 -15 -20 0
-2 -4 -5 -6 15 -19 0
-1 -3 -5 -7 -12 -13 0
-2 4 -5 -11 13 18 0
-1 2 -3 8 -11 -18 0
-2 -3 8 -13 17 19 0
3 -6 -8 11 12 -15 0
-3 4 5 -10 -13 -19 0
-4 -6 9 12 19 -20 0
-4 -6 -7 -8 13 -17 0
1 -4 7 -11 -16 19 0
-1 -4 5 13 -17 19 0
3 -9 10 -14 -18 19 0
1 6 -11 12 -14 15 0
1 3 -5 -7 -12 17 0
-5 8 -10 13 -14 18 0
3 -4 8 -11 15 18 0
4 -6 -7 12 14 20 0
